\ Model _copy
\ LP format - for model browsing. Use MPS format to capture full model detail.
Maximize
 
Subject To
 a2: x_0_2 = 1
 a3: x_0_3 = 1
 b0: x_0_0 + x_0_1 + x_0_2 + x_0_3 <= 1
Bounds
Binaries
 x_0_0 x_0_1 x_0_2 x_0_3
End
